;; produced by z3_gnatprove.drv ;;
(set-info :smt-lib-version 2.5)
(set-info :source |VC generated by SPARK 2014|)
(set-info :category industrial)
(set-info :status unknown)
;;; generated by SMT-LIB2 driver
;;; SMT-LIB2 driver: bit-vectors, common part
;;; SMT-LIB2: integer arithmetic
;;; SMT-LIB2: real arithmetic
(define-fun fp.isFinite32 ((x Float32)) Bool (not (or (fp.isInfinite x) (fp.isNaN x))))
(define-fun fp.isIntegral32 ((x Float32)) Bool (or (fp.isZero x) (and (fp.isNormal x) (= x (fp.roundToIntegral RNE x)))))
(declare-sort us_private 0)

(declare-const us_null_ext__ us_private)

(declare-datatypes ()
  ((t__ref (t__refqtmk (t__content Float32)))))

(declare-const x Float32)

;; "in_range"
(define-fun in_range ((x1 Float32)) Bool
  (and
    (fp.isFinite32 x1)
    (and
      (fp.leq (fp.neg (fp #b0 #b11111110 #b11111111111111111101110)) x1)
      (fp.leq x1 (fp #b0 #b11111110 #b11111111111111111101110)))))

;; "dynamic_invariant"
(define-fun dynamic_invariant ((temp___expr_191 Float32) (temp___is_init_187 Bool) (temp___skip_constant_188 Bool) (temp___do_toplevel_189 Bool) (temp___do_typ_inv_190 Bool)) Bool
  (=>
    (or
      (= temp___is_init_187 true)
      (fp.leq (fp.neg (fp #b0 #b11111110 #b11111111111111111101110)) (fp #b0 #b11111110 #b11111111111111111101110)))
    (in_range temp___expr_191)))

;; "in_range"
(define-fun in_range1 ((x1 Float32)) Bool
  (and
    (fp.isFinite32 x1)
    (and
      (fp.leq (fp.neg (fp #b0 #b10001000 #b01101000000000000000000)) x1)
      (fp.leq x1 (fp #b0 #b10001000 #b01101000000000000000000)))))

;; "dynamic_invariant"
(define-fun dynamic_invariant1 ((temp___expr_198 Float32) (temp___is_init_194 Bool) (temp___skip_constant_195 Bool) (temp___do_toplevel_196 Bool) (temp___do_typ_inv_197 Bool)) Bool
  (=>
    (or
      (= temp___is_init_194 true)
      (fp.leq (fp.neg (fp #b0 #b10001000 #b01101000000000000000000)) (fp #b0 #b10001000 #b01101000000000000000000)))
    (in_range1 temp___expr_198)))

(declare-const v1 Float32)

(declare-const v2 Float32)

;; "v2'unused"
(define-fun v2qtunused () t__ref
  (t__refqtmk v2))

;; "v1'unused"
(define-fun v1qtunused () t__ref
  (t__refqtmk v1))

;; "Assume"
(assert (dynamic_invariant1 x true false true true))

;; "Assume"
(assert true)

;; "Assume"
(assert (dynamic_invariant v1 false false true true))

;; "Assume"
(assert true)

;; "Assume"
(assert (dynamic_invariant v2 false false true true))

;; "o"
(define-fun o () Float32
  (fp.div RNE x (fp #b0 #b10000111 #b01101000000000000000000)))

;; "div_rne_'result'unused"
(define-fun div_rne_qtresultqtunused () Float32
  o)

(declare-const v11 Float32)

;; "v1'unused"
(define-fun v1qtunused1 () t__ref
  (t__refqtmk v11))

;; "H"
(assert (= v11 o))

;; "Assert"
(assert
  (and
    (fp.leq (fp.neg (fp #b0 #b10000000 #b00000000000000000000000)) v11)
    (fp.leq v11 (fp #b0 #b10000000 #b00000000000000000000000))))

;; "t__content'result'unused"
(define-fun t__contentqtresultqtunused () Float32
  v11)

;; "o"
(define-fun o1 () Float32
  (fp.roundToIntegral RTN v11))

;; "floor'result'unused"
(define-fun floorqtresultqtunused () Float32
  o1)

;; "Ensures"
(assert (fp.isFinite32 o1))

;; "range_check_'result'unused"
(define-fun range_check_qtresultqtunused () Float32
  o1)

(declare-const v21 Float32)

;; "v2'unused"
(define-fun v2qtunused1 () t__ref
  (t__refqtmk v21))

;; "H"
(assert (= v21 o1))

;; "Assert"
(assert (fp.leq v21 v11))

;; Goal "def'vc"
;; File "normalize.ads", line 13, characters 0-0
(assert
  (not
  (fp.leq (fp.sub RNE v11 (fp #b0 #b01111111 #b00000000000000000000000)) 
  v21)))

(check-sat)
